c clauses for multiplication of two 3 x 3 mod-2 matrices
c 
c number of variables: 90
c number of clauses: 216
c 
c variables:
c A(i,j): 1--9
c B(i,j): 10--18
c C(i,j): 19--27
c P(i,j,k): 28--54
c X(i,j,k): 55--90
c 
c clauses:
c 
p cnf 90 216
a 1 2 3 4 5 6 7 8 9 10 11 12 13 14 15 16 17 18 0
e 19 20 21 22 23 24 25 26 27 28 29 30 31 32 33 34 35 36 37 38 39 40 41 42 43 44 45 46 47 48 49 50 51 52 53 54 55 56 57 58 59 60 61 62 63 64 65 66 67 68 69 70 71 72 73 74 75 76 77 78 79 80 81 82 83 84 85 86 87 88 89 90 0
-55 0
-1 -10 28 0
-28 1 0
-28 10 0
55 28 -56 0
55 -28 56 0
-55 28 56 0
-55 -28 -56 0
-2 -13 29 0
-29 2 0
-29 13 0
56 29 -57 0
56 -29 57 0
-56 29 57 0
-56 -29 -57 0
-3 -16 30 0
-30 3 0
-30 16 0
57 30 -58 0
57 -30 58 0
-57 30 58 0
-57 -30 -58 0
-58 19 0
58 -19 0
-59 0
-1 -11 31 0
-31 1 0
-31 11 0
59 31 -60 0
59 -31 60 0
-59 31 60 0
-59 -31 -60 0
-2 -14 32 0
-32 2 0
-32 14 0
60 32 -61 0
60 -32 61 0
-60 32 61 0
-60 -32 -61 0
-3 -17 33 0
-33 3 0
-33 17 0
61 33 -62 0
61 -33 62 0
-61 33 62 0
-61 -33 -62 0
-62 20 0
62 -20 0
-63 0
-1 -12 34 0
-34 1 0
-34 12 0
63 34 -64 0
63 -34 64 0
-63 34 64 0
-63 -34 -64 0
-2 -15 35 0
-35 2 0
-35 15 0
64 35 -65 0
64 -35 65 0
-64 35 65 0
-64 -35 -65 0
-3 -18 36 0
-36 3 0
-36 18 0
65 36 -66 0
65 -36 66 0
-65 36 66 0
-65 -36 -66 0
-66 21 0
66 -21 0
-67 0
-4 -10 37 0
-37 4 0
-37 10 0
67 37 -68 0
67 -37 68 0
-67 37 68 0
-67 -37 -68 0
-5 -13 38 0
-38 5 0
-38 13 0
68 38 -69 0
68 -38 69 0
-68 38 69 0
-68 -38 -69 0
-6 -16 39 0
-39 6 0
-39 16 0
69 39 -70 0
69 -39 70 0
-69 39 70 0
-69 -39 -70 0
-70 22 0
70 -22 0
-71 0
-4 -11 40 0
-40 4 0
-40 11 0
71 40 -72 0
71 -40 72 0
-71 40 72 0
-71 -40 -72 0
-5 -14 41 0
-41 5 0
-41 14 0
72 41 -73 0
72 -41 73 0
-72 41 73 0
-72 -41 -73 0
-6 -17 42 0
-42 6 0
-42 17 0
73 42 -74 0
73 -42 74 0
-73 42 74 0
-73 -42 -74 0
-74 23 0
74 -23 0
-75 0
-4 -12 43 0
-43 4 0
-43 12 0
75 43 -76 0
75 -43 76 0
-75 43 76 0
-75 -43 -76 0
-5 -15 44 0
-44 5 0
-44 15 0
76 44 -77 0
76 -44 77 0
-76 44 77 0
-76 -44 -77 0
-6 -18 45 0
-45 6 0
-45 18 0
77 45 -78 0
77 -45 78 0
-77 45 78 0
-77 -45 -78 0
-78 24 0
78 -24 0
-79 0
-7 -10 46 0
-46 7 0
-46 10 0
79 46 -80 0
79 -46 80 0
-79 46 80 0
-79 -46 -80 0
-8 -13 47 0
-47 8 0
-47 13 0
80 47 -81 0
80 -47 81 0
-80 47 81 0
-80 -47 -81 0
-9 -16 48 0
-48 9 0
-48 16 0
81 48 -82 0
81 -48 82 0
-81 48 82 0
-81 -48 -82 0
-82 25 0
82 -25 0
-83 0
-7 -11 49 0
-49 7 0
-49 11 0
83 49 -84 0
83 -49 84 0
-83 49 84 0
-83 -49 -84 0
-8 -14 50 0
-50 8 0
-50 14 0
84 50 -85 0
84 -50 85 0
-84 50 85 0
-84 -50 -85 0
-9 -17 51 0
-51 9 0
-51 17 0
85 51 -86 0
85 -51 86 0
-85 51 86 0
-85 -51 -86 0
-86 26 0
86 -26 0
-87 0
-7 -12 52 0
-52 7 0
-52 12 0
87 52 -88 0
87 -52 88 0
-87 52 88 0
-87 -52 -88 0
-8 -15 53 0
-53 8 0
-53 15 0
88 53 -89 0
88 -53 89 0
-88 53 89 0
-88 -53 -89 0
-9 -18 54 0
-54 9 0
-54 18 0
89 54 -90 0
89 -54 90 0
-89 54 90 0
-89 -54 -90 0
-90 27 0
90 -27 0
